p edge 1193 1118
e 1 2
e 1 3
e 1 4
e 1 5
e 1 6
e 1 7
e 1 8
e 1 9
e 1 10
e 1 11
e 1 12
e 1 13
e 1 14
e 1 15
e 1 16
e 1 17
e 1 18
e 1 19
e 1 20
e 1 21
e 22 23
e 22 24
e 22 25
e 22 26
e 22 27
e 22 28
e 22 29
e 22 30
e 22 31
e 22 32
e 22 33
e 34 35
e 34 36
e 34 37
e 34 38
e 34 39
e 34 40
e 34 41
e 34 42
e 34 43
e 34 44
e 34 45
e 34 46
e 47 48
e 47 49
e 47 50
e 47 51
e 47 52
e 47 53
e 47 54
e 47 55
e 47 56
e 47 57
e 47 58
e 47 59
e 47 60
e 47 61
e 47 62
e 63 64
e 63 65
e 63 66
e 63 67
e 63 68
e 63 69
e 63 70
e 63 71
e 63 72
e 63 73
e 63 74
e 63 75
e 63 76
e 63 77
e 63 78
e 79 80
e 79 81
e 79 82
e 79 83
e 79 84
e 79 85
e 79 86
e 79 87
e 79 88
e 79 89
e 79 90
e 79 91
e 92 93
e 92 94
e 92 95
e 92 96
e 92 97
e 92 98
e 92 99
e 92 100
e 92 101
e 92 102
e 92 103
e 92 104
e 105 106
e 105 107
e 105 108
e 105 109
e 105 110
e 105 111
e 105 112
e 105 113
e 105 114
e 105 115
e 105 116
e 105 117
e 118 119
e 118 120
e 118 121
e 118 122
e 118 123
e 118 124
e 118 125
e 118 126
e 118 127
e 118 128
e 118 129
e 118 130
e 118 131
e 118 132
e 118 133
e 118 134
e 135 136
e 135 137
e 135 138
e 135 139
e 135 140
e 135 141
e 135 142
e 135 143
e 135 144
e 135 145
e 135 146
e 135 147
e 148 149
e 148 150
e 148 151
e 148 152
e 148 153
e 148 154
e 148 155
e 148 156
e 148 157
e 148 158
e 148 159
e 148 160
e 148 161
e 162 163
e 162 164
e 162 165
e 162 166
e 162 167
e 162 168
e 162 169
e 162 170
e 162 171
e 162 172
e 162 173
e 162 174
e 162 175
e 162 176
e 162 177
e 162 178
e 162 179
e 180 181
e 180 182
e 180 183
e 180 184
e 180 185
e 180 186
e 180 187
e 180 188
e 180 189
e 180 190
e 180 191
e 180 192
e 180 193
e 180 194
e 180 195
e 180 196
e 180 197
e 180 198
e 199 200
e 199 201
e 199 202
e 199 203
e 199 204
e 199 205
e 199 206
e 199 207
e 199 208
e 199 209
e 199 210
e 199 211
e 199 212
e 199 213
e 199 214
e 199 215
e 216 217
e 216 218
e 216 219
e 216 220
e 216 221
e 216 222
e 216 223
e 216 224
e 216 225
e 216 226
e 216 227
e 228 229
e 228 230
e 228 231
e 228 232
e 228 233
e 228 234
e 228 235
e 228 236
e 228 237
e 228 238
e 228 239
e 228 240
e 228 241
e 228 242
e 228 243
e 228 244
e 228 245
e 228 246
e 228 247
e 248 249
e 248 250
e 248 251
e 248 252
e 248 253
e 248 254
e 248 255
e 248 256
e 248 257
e 248 258
e 248 259
e 248 260
e 248 261
e 262 263
e 262 264
e 262 265
e 262 266
e 262 267
e 262 268
e 262 269
e 262 270
e 262 271
e 262 272
e 262 273
e 262 274
e 262 275
e 262 276
e 262 277
e 262 278
e 262 279
e 262 280
e 262 281
e 282 283
e 282 284
e 282 285
e 282 286
e 282 287
e 282 288
e 282 289
e 282 290
e 282 291
e 282 292
e 282 293
e 294 295
e 294 296
e 294 297
e 294 298
e 294 299
e 294 300
e 294 301
e 294 302
e 294 303
e 294 304
e 294 305
e 294 306
e 294 307
e 294 308
e 294 309
e 294 310
e 294 311
e 312 313
e 312 314
e 312 315
e 312 316
e 312 317
e 312 318
e 312 319
e 312 320
e 312 321
e 312 322
e 312 323
e 312 324
e 312 325
e 312 326
e 312 327
e 328 329
e 328 330
e 328 331
e 328 332
e 328 333
e 328 334
e 328 335
e 328 336
e 328 337
e 328 338
e 328 339
e 328 340
e 328 341
e 342 343
e 342 344
e 342 345
e 342 346
e 342 347
e 342 348
e 342 349
e 342 350
e 342 351
e 342 352
e 353 354
e 353 355
e 353 356
e 353 357
e 353 358
e 353 359
e 353 360
e 353 361
e 353 362
e 353 363
e 353 364
e 353 365
e 353 366
e 353 367
e 353 368
e 353 369
e 353 370
e 353 371
e 353 372
e 373 374
e 373 375
e 373 376
e 373 377
e 373 378
e 373 379
e 373 380
e 373 381
e 373 382
e 373 383
e 384 385
e 384 386
e 384 387
e 384 388
e 384 389
e 384 390
e 384 391
e 384 392
e 384 393
e 384 394
e 384 395
e 384 396
e 397 398
e 397 399
e 397 400
e 397 401
e 397 402
e 397 403
e 397 404
e 397 405
e 397 406
e 397 407
e 397 408
e 397 409
e 397 410
e 397 411
e 397 412
e 397 413
e 397 414
e 415 416
e 415 417
e 415 418
e 415 419
e 415 420
e 415 421
e 415 422
e 415 423
e 415 424
e 415 425
e 415 426
e 415 427
e 428 429
e 428 430
e 428 431
e 428 432
e 428 433
e 428 434
e 428 435
e 428 436
e 428 437
e 428 438
e 428 439
e 428 440
e 428 441
e 428 442
e 428 443
e 428 444
e 428 445
e 428 446
e 428 447
e 428 448
e 449 450
e 449 451
e 449 452
e 449 453
e 449 454
e 449 455
e 449 456
e 449 457
e 449 458
e 449 459
e 449 460
e 449 461
e 449 462
e 449 463
e 449 464
e 449 465
e 466 467
e 466 468
e 466 469
e 466 470
e 466 471
e 466 472
e 466 473
e 466 474
e 466 475
e 466 476
e 466 477
e 466 478
e 466 479
e 480 481
e 480 482
e 480 483
e 480 484
e 480 485
e 480 486
e 480 487
e 480 488
e 480 489
e 480 490
e 480 491
e 492 493
e 492 494
e 492 495
e 492 496
e 492 497
e 492 498
e 492 499
e 492 500
e 492 501
e 492 502
e 492 503
e 492 504
e 492 505
e 492 506
e 492 507
e 492 508
e 492 509
e 492 510
e 492 511
e 492 512
e 513 514
e 513 515
e 513 516
e 513 517
e 513 518
e 513 519
e 513 520
e 513 521
e 513 522
e 513 523
e 513 524
e 513 525
e 513 526
e 513 527
e 513 528
e 513 529
e 513 530
e 513 531
e 513 532
e 513 533
e 534 535
e 534 536
e 534 537
e 534 538
e 534 539
e 534 540
e 534 541
e 534 542
e 534 543
e 534 544
e 534 545
e 534 546
e 534 547
e 534 548
e 534 549
e 534 550
e 551 552
e 551 553
e 551 554
e 551 555
e 551 556
e 551 557
e 551 558
e 551 559
e 551 560
e 551 561
e 551 562
e 551 563
e 551 564
e 551 565
e 566 567
e 566 568
e 566 569
e 566 570
e 566 571
e 566 572
e 566 573
e 566 574
e 566 575
e 566 576
e 566 577
e 566 578
e 566 579
e 566 580
e 581 582
e 581 583
e 581 584
e 581 585
e 581 586
e 581 587
e 581 588
e 581 589
e 581 590
e 581 591
e 581 592
e 593 594
e 593 595
e 593 596
e 593 597
e 593 598
e 593 599
e 593 600
e 593 601
e 593 602
e 593 603
e 593 604
e 593 605
e 606 607
e 606 608
e 606 609
e 606 610
e 606 611
e 606 612
e 606 613
e 606 614
e 606 615
e 606 616
e 617 618
e 617 619
e 617 620
e 617 621
e 617 622
e 617 623
e 617 624
e 617 625
e 617 626
e 617 627
e 617 628
e 617 629
e 617 630
e 617 631
e 617 632
e 617 633
e 617 634
e 617 635
e 617 636
e 637 638
e 637 639
e 637 640
e 637 641
e 637 642
e 637 643
e 637 644
e 637 645
e 637 646
e 637 647
e 637 648
e 637 649
e 637 650
e 637 651
e 637 652
e 653 654
e 653 655
e 653 656
e 653 657
e 653 658
e 653 659
e 653 660
e 653 661
e 653 662
e 653 663
e 653 664
e 653 665
e 653 666
e 667 668
e 667 669
e 667 670
e 667 671
e 667 672
e 667 673
e 667 674
e 667 675
e 667 676
e 667 677
e 667 678
e 667 679
e 667 680
e 667 681
e 667 682
e 667 683
e 667 684
e 685 686
e 685 687
e 685 688
e 685 689
e 685 690
e 685 691
e 685 692
e 685 693
e 685 694
e 685 695
e 685 696
e 697 698
e 697 699
e 697 700
e 697 701
e 697 702
e 697 703
e 697 704
e 697 705
e 697 706
e 697 707
e 697 708
e 697 709
e 710 711
e 710 712
e 710 713
e 710 714
e 710 715
e 710 716
e 710 717
e 710 718
e 710 719
e 710 720
e 710 721
e 710 722
e 710 723
e 710 724
e 710 725
e 710 726
e 710 727
e 710 728
e 710 729
e 710 730
e 731 732
e 731 733
e 731 734
e 731 735
e 731 736
e 731 737
e 731 738
e 731 739
e 731 740
e 731 741
e 731 742
e 731 743
e 731 744
e 731 745
e 731 746
e 731 747
e 731 748
e 731 749
e 731 750
e 751 752
e 751 753
e 751 754
e 751 755
e 751 756
e 751 757
e 751 758
e 751 759
e 751 760
e 751 761
e 751 762
e 751 763
e 751 764
e 751 765
e 751 766
e 751 767
e 751 768
e 751 769
e 751 770
e 771 772
e 771 773
e 771 774
e 771 775
e 771 776
e 771 777
e 771 778
e 771 779
e 771 780
e 771 781
e 771 782
e 771 783
e 771 784
e 771 785
e 771 786
e 771 787
e 771 788
e 771 789
e 790 791
e 790 792
e 790 793
e 790 794
e 790 795
e 790 796
e 790 797
e 790 798
e 790 799
e 790 800
e 790 801
e 790 802
e 790 803
e 790 804
e 790 805
e 790 806
e 790 807
e 790 808
e 809 810
e 809 811
e 809 812
e 809 813
e 809 814
e 809 815
e 809 816
e 809 817
e 809 818
e 809 819
e 809 820
e 809 821
e 809 822
e 809 823
e 809 824
e 809 825
e 809 826
e 809 827
e 809 828
e 829 830
e 829 831
e 829 832
e 829 833
e 829 834
e 829 835
e 829 836
e 829 837
e 829 838
e 829 839
e 829 840
e 829 841
e 829 842
e 829 843
e 829 844
e 829 845
e 829 846
e 847 848
e 847 849
e 847 850
e 847 851
e 847 852
e 847 853
e 847 854
e 847 855
e 847 856
e 847 857
e 847 858
e 847 859
e 860 861
e 860 862
e 860 863
e 860 864
e 860 865
e 860 866
e 860 867
e 860 868
e 860 869
e 860 870
e 860 871
e 860 872
e 873 874
e 873 875
e 873 876
e 873 877
e 873 878
e 873 879
e 873 880
e 873 881
e 873 882
e 873 883
e 873 884
e 873 885
e 873 886
e 873 887
e 873 888
e 889 890
e 889 891
e 889 892
e 889 893
e 889 894
e 889 895
e 889 896
e 889 897
e 889 898
e 889 899
e 889 900
e 889 901
e 889 902
e 889 903
e 889 904
e 889 905
e 889 906
e 889 907
e 908 909
e 908 910
e 908 911
e 908 912
e 908 913
e 908 914
e 908 915
e 908 916
e 908 917
e 908 918
e 908 919
e 908 920
e 908 921
e 922 923
e 922 924
e 922 925
e 922 926
e 922 927
e 922 928
e 922 929
e 922 930
e 922 931
e 922 932
e 922 933
e 922 934
e 922 935
e 922 936
e 922 937
e 922 938
e 922 939
e 940 941
e 940 942
e 940 943
e 940 944
e 940 945
e 940 946
e 940 947
e 940 948
e 940 949
e 940 950
e 940 951
e 940 952
e 940 953
e 940 954
e 955 956
e 955 957
e 955 958
e 955 959
e 955 960
e 955 961
e 955 962
e 955 963
e 955 964
e 955 965
e 966 967
e 966 968
e 966 969
e 966 970
e 966 971
e 966 972
e 966 973
e 966 974
e 966 975
e 966 976
e 966 977
e 966 978
e 966 979
e 966 980
e 966 981
e 982 983
e 982 984
e 982 985
e 982 986
e 982 987
e 982 988
e 982 989
e 982 990
e 982 991
e 982 992
e 982 993
e 982 994
e 982 995
e 982 996
e 982 997
e 982 998
e 982 999
e 982 1000
e 1001 1002
e 1001 1003
e 1001 1004
e 1001 1005
e 1001 1006
e 1001 1007
e 1001 1008
e 1001 1009
e 1001 1010
e 1001 1011
e 1001 1012
e 1001 1013
e 1001 1014
e 1001 1015
e 1001 1016
e 1001 1017
e 1018 1019
e 1018 1020
e 1018 1021
e 1018 1022
e 1018 1023
e 1018 1024
e 1018 1025
e 1018 1026
e 1018 1027
e 1018 1028
e 1018 1029
e 1018 1030
e 1018 1031
e 1018 1032
e 1018 1033
e 1018 1034
e 1035 1036
e 1035 1037
e 1035 1038
e 1035 1039
e 1035 1040
e 1035 1041
e 1035 1042
e 1035 1043
e 1035 1044
e 1035 1045
e 1035 1046
e 1035 1047
e 1035 1048
e 1035 1049
e 1035 1050
e 1035 1051
e 1035 1052
e 1053 1054
e 1053 1055
e 1053 1056
e 1053 1057
e 1053 1058
e 1053 1059
e 1053 1060
e 1053 1061
e 1053 1062
e 1053 1063
e 1064 1065
e 1064 1066
e 1064 1067
e 1064 1068
e 1064 1069
e 1064 1070
e 1064 1071
e 1064 1072
e 1064 1073
e 1064 1074
e 1064 1075
e 1064 1076
e 1064 1077
e 1064 1078
e 1064 1079
e 1080 1081
e 1080 1082
e 1080 1083
e 1080 1084
e 1080 1085
e 1080 1086
e 1080 1087
e 1080 1088
e 1080 1089
e 1080 1090
e 1080 1091
e 1080 1092
e 1080 1093
e 1080 1094
e 1080 1095
e 1080 1096
e 1097 1098
e 1097 1099
e 1097 1100
e 1097 1101
e 1097 1102
e 1097 1103
e 1097 1104
e 1097 1105
e 1097 1106
e 1097 1107
e 1097 1108
e 1097 1109
e 1110 1111
e 1110 1112
e 1110 1113
e 1110 1114
e 1110 1115
e 1110 1116
e 1110 1117
e 1110 1118
e 1110 1119
e 1110 1120
e 1110 1121
e 1110 1122
e 1110 1123
e 1110 1124
e 1110 1125
e 1126 1127
e 1126 1128
e 1126 1129
e 1126 1130
e 1126 1131
e 1126 1132
e 1126 1133
e 1126 1134
e 1126 1135
e 1126 1136
e 1126 1137
e 1126 1138
e 1126 1139
e 1126 1140
e 1126 1141
e 1142 1143
e 1142 1144
e 1142 1145
e 1142 1146
e 1142 1147
e 1142 1148
e 1142 1149
e 1142 1150
e 1142 1151
e 1142 1152
e 1142 1153
e 1154 1155
e 1154 1156
e 1154 1157
e 1154 1158
e 1154 1159
e 1154 1160
e 1154 1161
e 1154 1162
e 1154 1163
e 1154 1164
e 1154 1165
e 1154 1166
e 1154 1167
e 1154 1168
e 1154 1169
e 1154 1170
e 1154 1171
e 1154 1172
e 1173 1174
e 1173 1175
e 1173 1176
e 1173 1177
e 1173 1178
e 1173 1179
e 1173 1180
e 1173 1181
e 1173 1182
e 1173 1183
e 1173 1184
e 1173 1185
e 1173 1186
e 1173 1187
e 1173 1188
e 1173 1189
e 1173 1190
e 1173 1191
e 1173 1192
e 1173 1193
